
--- Job aveekmahmud_LATE_1625010_78530655_HW3_MRA.gms Start 09/26/20 17:45:21 24.2.3 r46072 WEX-WEI x86_64/MS Windows
GAMS 24.2.3   Copyright (C) 1987-2014 GAMS Development. All rights reserved
Licensee: Utah Water Research Laboratory (5 user)        G140130:1517AV-GEN
          Utah State University                                      DC7087
          License for teaching and research at degree granting institutions
--- Starting compilation
--- aveekmahmud_LATE_1625010_78530655_HW3_MRA.gms(73) 3 Mb
--- Starting execution: elapsed 0:00:00.034
--- Generating LP model PLANTING
--- aveekmahmud_LATE_1625010_78530655_HW3_MRA.gms(72) 4 Mb
---   5 rows  3 columns  10 non-zeroes
--- Executing CPLEX: elapsed 0:00:00.135

IBM ILOG CPLEX   24.2.3 r46072 Released May 22, 2014 WEI x86_64/MS Windows    
Cplex 12.6.0.0

Reading data...
Starting Cplex...
Space for names approximately 0.00 Mb
Use option 'names no' to turn use of names off
Tried aggregator 1 time.
LP Presolve eliminated 2 rows and 1 columns.
Reduced LP has 3 rows, 2 columns, and 6 nonzeros.
Presolve time = 0.00 sec. (0.00 ticks)

Iteration      Dual Objective            In Variable           Out Variable
     1  I            0.000000               X(Grain)RES_CONSTRAIN(Jul slack
     2         1213333.333333                 X(Hay)RES_CONSTRAIN(Jun slack
     3         1160000.000000RES_CONSTRAIN(Jun slackRES_CONSTRAIN(Lan slack
LP status(1): optimal
Cplex Time: 0.01sec (det. 0.01 ticks)

Optimal solution found.
Objective :     1160000.000000

--- Restarting execution
--- aveekmahmud_LATE_1625010_78530655_HW3_MRA.gms(72) 2 Mb
--- Reading solution for model PLANTING
*** Status: Normal completion
--- Job aveekmahmud_LATE_1625010_78530655_HW3_MRA.gms Stop 09/26/20 17:45:22 elapsed 0:00:00.352
